(set-logic UFDT)
(declare-datatypes ((nat 0)) (((zero) (s (s0 nat)))))
(declare-fun add (nat nat) nat)
(declare-fun leq (nat nat) Bool)
(assert (forall ((x nat)) (leq x x)))
(assert (forall ((x nat) (y nat)) (=> (leq x y) (leq x (s y)))))
(assert (forall ((y nat)) (= (add zero y) y)))
(assert (forall ((x nat) (y nat)) (= (add (s x) y) (s (add x y)))))
(assert (not (forall ((x nat)) (leq x (add x x)))))
(check-sat)
